solution status: optimal solution found
objective value:                     144863.953030385
d11(0,0)                                            1 	(obj:0)
d11(1,1)                                            1 	(obj:0)
d11(1,2)                                            1 	(obj:0)
d11(2,3)                                            1 	(obj:0)
d11(2,4)                                            1 	(obj:0)
d11(2,5)                                            1 	(obj:0)
d11(3,7)                                            1 	(obj:0)
d11(3,9)                                            1 	(obj:0)
d11(3,10)                                           1 	(obj:0)
d11(3,11)                                           1 	(obj:0)
d11(3,12)                                           1 	(obj:0)
d11(3,13)                                           1 	(obj:0)
d11(3,14)                                           1 	(obj:0)
d12(4,15)                                           1 	(obj:0)
d12(4,16)                                           1 	(obj:0)
d12(4,17)                                           1 	(obj:0)
d12(4,18)                                           1 	(obj:0)
d12(4,19)                                           1 	(obj:0)
d12(4,20)                                           1 	(obj:0)
d12(4,21)                                           1 	(obj:0)
d12(4,22)                                           1 	(obj:0)
d12(4,23)                                           1 	(obj:0)
d12(4,24)                                           1 	(obj:0)
d12(4,25)                                           1 	(obj:0)
d12(4,26)                                           1 	(obj:0)
d12(4,27)                                           1 	(obj:0)
d12(4,28)                                           1 	(obj:0)
d12(4,29)                                           1 	(obj:0)
d12(4,30)                                           1 	(obj:0)
d21(2,3)                                            1 	(obj:0)
d21(3,7)                                            1 	(obj:0)
d21(3,8)                                            1 	(obj:0)
d21(3,9)                                            1 	(obj:0)
d21(3,11)                                           1 	(obj:0)
d21(4,15)                                           1 	(obj:0)
d21(4,16)                                           1 	(obj:0)
d21(4,17)                                           1 	(obj:0)
d21(4,18)                                           1 	(obj:0)
d21(4,19)                                           1 	(obj:0)
d21(4,20)                                           1 	(obj:0)
d21(4,23)                                           1 	(obj:0)
d21(4,24)                                           1 	(obj:0)
y2(4,15)                             684.473577777581 	(obj:0)
y2(4,16)                             2176.89848677752 	(obj:0)
y2(4,17)                             684.473577777581 	(obj:0)
y2(4,18)                             2176.89848677752 	(obj:0)
y2(4,19)                             684.473577777581 	(obj:0)
y2(4,20)                             2176.89848677752 	(obj:0)
y2(4,21)                             684.473577777581 	(obj:0)
y2(4,22)                             2176.89848677752 	(obj:0)
y2(4,23)                             684.473577777581 	(obj:0)
y2(4,24)                             2176.89848677752 	(obj:0)
y2(4,25)                             684.473577777581 	(obj:0)
y2(4,26)                             2176.89848677752 	(obj:0)
y2(4,27)                             684.473577777581 	(obj:0)
y2(4,28)                             2176.89848677752 	(obj:0)
y2(4,29)                             684.473577777581 	(obj:0)
y2(4,30)                             2176.89848677754 	(obj:0)
STE(1,1)                              9933.7501011113 	(obj:0)
STE(0,0)                                        12600 	(obj:0)
STE(1,2)                             11592.0000000001 	(obj:0)
STE(2,3)                             7267.50020222245 	(obj:0)
STE(2,4)                              8925.7501011113 	(obj:0)
STE(2,5)                             8925.75010111127 	(obj:0)
STE(2,6)                             10584.0000000001 	(obj:0)
STE(3,7)                             4601.25030333363 	(obj:0)
STE(3,8)                             6259.50020222245 	(obj:0)
STE(3,9)                             6259.50020222248 	(obj:0)
STE(3,10)                             7917.7501011113 	(obj:0)
STE(3,11)                            6259.50020222245 	(obj:0)
STE(3,12)                            7917.75010111127 	(obj:0)
STE(3,13)                             7917.7501011113 	(obj:0)
STE(3,14)                            9576.00000000011 	(obj:0)
STE(4,15)                            4243.50020222234 	(obj:0)
STE(4,16)                            5661.30386577228 	(obj:0)
STE(4,17)                            5901.75010111115 	(obj:0)
STE(4,18)                            7319.55376466109 	(obj:0)
STE(4,19)                            5901.75010111118 	(obj:0)
STE(4,20)                            7319.55376466112 	(obj:0)
STE(4,21)                                        7560 	(obj:0)
STE(4,22)                            8977.80366354994 	(obj:0)
STE(4,23)                            5901.75010111116 	(obj:0)
STE(4,24)                            7319.55376466109 	(obj:0)
STE(4,25)                            7559.99999999997 	(obj:0)
STE(4,26)                            8977.80366354991 	(obj:0)
STE(4,27)                                        7560 	(obj:0)
STE(4,28)                            8977.80366354994 	(obj:0)
STE(4,29)                            9218.24989888882 	(obj:0)
STE(4,30)                            10636.0535624388 	(obj:0)
y1(3,11)                             1492.42490899994 	(obj:0)
y1(3,13)                             1492.42490899994 	(obj:0)
AVE(1)                               3265.91696791192 	(obj:0)
WB(2)                                3332.74178563731 	(obj:0)
AVE(2)                               3332.74178563731 	(obj:0)
WB(3)                                3444.11697932125 	(obj:0)
AVE(3)                               3444.11697932125 	(obj:0)
WB(4)                                3399.56511093778 	(obj:0)
AVE(4)                               3399.56511093778 	(obj:0)
WG(1)                                3265.91696791192 	(obj:10)
BG(1)                                930.375531067539 	(obj:10)
BG(2)                                4196.29249897959 	(obj:10)
BG(3)                                4196.29249897957 	(obj:10)
BG(4)                                1897.51780610045 	(obj:10)
y1(1,1)                              1492.42490899983 	(obj:0)
y1(2,3)                              1492.42490899996 	(obj:0)
y1(2,5)                              1492.42490899996 	(obj:0)
y1(3,7)                              1492.42490899994 	(obj:0)
y1(3,9)                              1492.42490899994 	(obj:0)
